p wcnf 140 1200
9 -137 140 0
2 -130 137 0
6 -129 -131 0
2 -128 -140 0
4 -126 -131 0
3 -125 -136 0
9 -124 -133 0
8 -124 125 0
9 -122 -134 0
7 -122 -123 0
7 -122 126 0
7 -122 139 0
4 -121 -139 0
7 -120 -132 0
2 -119 127 0
8 -118 -134 0
7 -117 -131 0
6 -117 120 0
3 -117 126 0
2 -116 -118 0
9 -116 119 0
6 -116 126 0
4 -115 -128 0
3 -115 -123 0
9 -115 130 0
8 -114 -134 0
9 -114 -127 0
1 -113 -134 0
8 -112 -124 0
3 -111 -134 0
4 -111 127 0
7 -110 -133 0
4 -110 130 0
9 -109 -140 0
8 -109 -134 0
7 -109 -122 0
2 -109 131 0
7 -108 -116 0
5 -108 -112 0
1 -108 133 0
3 -107 -131 0
2 -105 -138 0
7 -105 -136 0
7 -104 -105 0
8 -104 125 0
8 -103 -133 0
5 -102 -124 0
5 -102 -114 0
4 -102 -106 0
7 -102 108 0
7 -101 -120 0
3 -101 -108 0
4 -101 108 0
10 -101 134 0
6 -100 -137 0
3 -100 -114 0
8 -100 -105 0
4 -100 121 0
3 -100 125 0
6 -100 134 0
7 -99 -129 0
6 -99 -108 0
3 -98 -104 0
10 -98 -99 0
5 -97 -138 0
10 -97 -130 0
7 -96 -102 0
6 -96 111 0
6 -96 127 0
1 -95 108 0
6 -94 98 0
9 -94 136 0
2 -93 -108 0
3 -93 99 0
6 -92 129 0
9 -91 -106 0
1 -91 119 0
10 -90 -133 0
5 -90 -105 0
5 -90 -92 0
7 -89 -127 0
1 -89 -108 0
7 -89 112 0
10 -88 -140 0
1 -88 -102 0
2 -87 -131 0
2 -87 -97 0
8 -87 104 0
5 -85 -133 0
5 -85 -127 0
4 -85 95 0
2 -85 111 0
10 -85 129 0
6 -85 137 0
2 -84 111 0
4 -83 -130 0
5 -83 -99 0
7 -83 111 0
9 -82 -112 0
2 -81 97 0
8 -81 119 0
5 -80 -132 0
10 -80 -101 0
9 -80 96 0
7 -80 135 0
5 -79 -119 0
8 -78 -110 0
8 -77 89 0
5 -76 -139 0
2 -76 -117 0
2 -76 -108 0
2 -76 92 0
3 -76 93 0
8 -76 104 0
1 -76 127 0
3 -75 -82 0
9 -75 -79 0
3 -74 -109 0
10 -74 -88 0
4 -74 90 0
7 -74 139 0
4 -73 -127 0
5 -73 -89 0
6 -72 -88 0
9 -72 -73 0
6 -72 78 0
10 -72 125 0
4 -71 -139 0
3 -71 -131 0
9 -71 -117 0
5 -71 -90 0
10 -71 -79 0
4 -71 91 0
5 -71 113 0
8 -71 133 0
1 -71 134 0
9 -70 -138 0
6 -70 100 0
8 -70 116 0
4 -69 -124 0
8 -69 -88 0
9 -69 -70 0
5 -69 75 0
9 -69 84 0
7 -69 105 0
5 -69 120 0
2 -69 124 0
6 -69 129 0
7 -68 -125 0
2 -68 -109 0
10 -68 -106 0
3 -68 -77 0
5 -68 87 0
5 -68 91 0
9 -67 -131 0
3 -67 -117 0
1 -67 -111 0
8 -67 80 0
6 -67 128 0
3 -67 137 0
7 -66 -109 0
1 -65 -120 0
3 -65 -102 0
1 -65 72 0
5 -65 80 0
1 -65 124 0
2 -65 127 0
4 -64 -68 0
7 -64 -65 0
9 -64 70 0
7 -64 74 0
4 -64 78 0
8 -63 -123 0
1 -63 72 0
4 -63 125 0
5 -63 140 0
5 -62 -125 0
4 -62 -99 0
1 -62 -86 0
2 -62 -77 0
5 -62 90 0
1 -62 102 0
5 -61 -104 0
9 -61 -102 0
5 -61 -73 0
3 -61 -69 0
2 -61 64 0
5 -60 82 0
2 -60 84 0
7 -60 109 0
8 -60 110 0
8 -60 127 0
7 -59 -126 0
10 -59 -119 0
8 -59 75 0
2 -59 114 0
1 -58 -112 0
9 -58 -108 0
4 -58 -107 0
7 -58 -79 0
7 -58 65 0
1 -58 103 0
1 -57 -137 0
6 -57 85 0
1 -57 126 0
4 -57 127 0
10 -56 -118 0
6 -56 -91 0
7 -56 -82 0
1 -56 -74 0
7 -56 135 0
2 -56 140 0
1 -55 -115 0
1 -55 -97 0
1 -55 -70 0
5 -55 -60 0
4 -55 89 0
2 -55 135 0
10 -54 -115 0
4 -54 -89 0
8 -54 -68 0
7 -54 -60 0
2 -54 56 0
5 -54 73 0
7 -54 116 0
9 -54 118 0
6 -53 66 0
7 -53 81 0
8 -53 114 0
9 -53 117 0
4 -52 -107 0
6 -52 -96 0
9 -52 -66 0
4 -52 69 0
1 -52 136 0
9 -51 -103 0
7 -51 -86 0
10 -51 -85 0
5 -51 67 0
4 -51 98 0
1 -51 115 0
2 -51 136 0
6 -50 -137 0
2 -50 -109 0
2 -50 -96 0
6 -50 -90 0
6 -50 109 0
5 -49 -80 0
7 -49 -76 0
6 -49 -75 0
8 -49 -67 0
5 -49 96 0
3 -48 -136 0
9 -48 -129 0
8 -48 -119 0
9 -48 -109 0
9 -48 -85 0
4 -48 83 0
6 -48 97 0
7 -48 124 0
3 -47 -139 0
8 -47 -111 0
2 -47 -100 0
2 -47 -79 0
2 -47 -71 0
2 -47 50 0
2 -47 63 0
8 -47 68 0
2 -47 77 0
6 -47 97 0
2 -47 111 0
3 -46 -120 0
7 -46 90 0
7 -45 -121 0
3 -45 -92 0
8 -45 97 0
2 -45 116 0
8 -45 121 0
2 -45 131 0
8 -44 -124 0
4 -44 -117 0
9 -44 -110 0
3 -44 -70 0
6 -44 54 0
8 -44 58 0
1 -44 62 0
4 -44 94 0
7 -43 -123 0
4 -43 -106 0
9 -43 -78 0
4 -43 -53 0
6 -43 73 0
7 -43 80 0
5 -43 99 0
8 -42 -84 0
9 -42 -79 0
6 -42 -71 0
9 -42 -65 0
7 -42 -47 0
8 -42 72 0
4 -42 75 0
8 -42 95 0
9 -42 109 0
1 -42 120 0
4 -41 -111 0
2 -41 -80 0
8 -41 63 0
6 -40 -131 0
9 -40 -120 0
9 -40 -111 0
4 -40 -95 0
3 -40 -82 0
8 -40 -59 0
5 -40 127 0
8 -39 -65 0
7 -39 90 0
5 -39 102 0
2 -39 131 0
4 -38 -104 0
8 -38 -84 0
1 -38 -72 0
6 -38 -71 0
5 -38 -66 0
7 -38 -61 0
1 -38 -57 0
2 -38 55 0
6 -38 82 0
7 -38 136 0
1 -37 -119 0
2 -37 -118 0
4 -37 -86 0
4 -37 81 0
9 -37 100 0
3 -36 -132 0
4 -36 -115 0
3 -36 -112 0
5 -36 -100 0
2 -36 -40 0
8 -36 70 0
4 -36 101 0
10 -36 112 0
2 -36 139 0
6 -35 -120 0
8 -35 65 0
6 -35 112 0
4 -35 121 0
5 -34 -96 0
1 -34 -79 0
5 -34 -74 0
7 -34 62 0
9 -34 75 0
5 -34 107 0
4 -33 -123 0
3 -33 -103 0
2 -33 -85 0
4 -33 -65 0
5 -33 -36 0
7 -33 37 0
9 -33 50 0
5 -33 100 0
9 -33 116 0
4 -32 -126 0
8 -32 -75 0
7 -32 -37 0
6 -32 57 0
3 -32 84 0
10 -32 119 0
10 -32 124 0
4 -32 126 0
8 -31 -63 0
4 -31 -43 0
4 -31 45 0
8 -30 -136 0
9 -30 -123 0
2 -30 -104 0
4 -30 -81 0
3 -30 -32 0
6 -30 61 0
5 -30 87 0
7 -30 104 0
3 -29 -104 0
3 -29 -92 0
2 -29 -79 0
5 -29 -39 0
6 -29 35 0
3 -29 38 0
8 -29 84 0
9 -29 139 0
9 -28 -94 0
8 -28 -41 0
4 -28 93 0
8 -28 106 0
1 -28 137 0
2 -27 -112 0
5 -27 -71 0
6 -27 -65 0
4 -27 -53 0
5 -27 -45 0
6 -27 37 0
7 -27 48 0
3 -27 75 0
9 -27 111 0
10 -26 -129 0
1 -26 -121 0
8 -26 -89 0
2 -26 -71 0
5 -26 -68 0
10 -26 -61 0
6 -26 -55 0
8 -26 -35 0
6 -26 27 0
8 -26 93 0
1 -26 104 0
7 -26 124 0
4 -25 -122 0
6 -25 -98 0
10 -25 -62 0
2 -25 -44 0
5 -25 -31 0
9 -25 54 0
9 -24 -98 0
8 -24 -91 0
7 -24 -49 0
9 -24 -35 0
10 -24 -33 0
2 -24 -28 0
6 -24 130 0
4 -23 -109 0
7 -23 -97 0
2 -23 -76 0
1 -23 -36 0
9 -23 81 0
1 -23 116 0
1 -23 123 0
9 -22 -98 0
8 -22 -86 0
2 -22 -85 0
4 -22 -74 0
8 -22 -58 0
7 -22 52 0
2 -22 67 0
4 -22 96 0
6 -22 112 0
2 -22 118 0
1 -21 -59 0
8 -21 28 0
7 -21 32 0
1 -21 54 0
9 -21 56 0
2 -21 57 0
9 -21 58 0
8 -21 83 0
10 -21 121 0
6 -20 -124 0
8 -20 -107 0
9 -20 -90 0
7 -20 -40 0
4 -20 -30 0
4 -20 129 0
4 -19 -124 0
5 -19 103 0
4 -19 133 0
2 -18 -42 0
5 -18 -21 0
4 -18 104 0
1 -18 119 0
3 -17 -128 0
5 -17 -23 0
4 -17 25 0
9 -17 41 0
2 -17 66 0
5 -17 114 0
3 -16 -135 0
6 -16 -126 0
6 -16 -68 0
4 -16 -30 0
5 -16 24 0
3 -16 85 0
4 -16 95 0
4 -16 119 0
4 -16 121 0
3 -16 126 0
3 -16 128 0
4 -15 -119 0
8 -15 -59 0
9 -15 -43 0
3 -15 44 0
5 -15 75 0
3 -15 76 0
6 -15 107 0
8 -14 -59 0
7 -14 -43 0
8 -14 27 0
10 -14 108 0
2 -14 139 0
2 -13 -106 0
10 -13 -74 0
4 -13 -42 0
6 -13 84 0
4 -13 92 0
3 -13 113 0
6 -12 -139 0
7 -12 94 0
5 -12 97 0
3 -12 112 0
3 -12 113 0
8 -11 -87 0
7 -11 -42 0
5 -11 26 0
1 -11 35 0
10 -10 -130 0
8 -10 -96 0
3 -10 -80 0
2 -10 -62 0
1 -10 -28 0
10 -10 34 0
2 -10 62 0
3 -9 -107 0
5 -9 -96 0
4 -9 -13 0
8 -9 48 0
3 -9 97 0
1 -9 111 0
6 -9 121 0
2 -8 -133 0
2 -8 -119 0
7 -8 93 0
2 -7 -100 0
4 -7 -90 0
3 -7 -80 0
5 -7 -60 0
6 -7 -47 0
8 -7 -46 0
2 -7 -24 0
1 -7 -21 0
10 -7 -19 0
5 -7 24 0
8 -7 55 0
6 -7 88 0
8 -7 118 0
8 -7 124 0
6 -6 -137 0
6 -6 -123 0
1 -6 -86 0
8 -6 -68 0
7 -6 -49 0
10 -6 -10 0
9 -6 7 0
9 -6 50 0
5 -6 61 0
3 -6 63 0
7 -6 128 0
6 -5 -67 0
3 -5 -11 0
3 -5 6 0
8 -5 99 0
4 -4 -115 0
10 -4 -113 0
9 -4 -86 0
7 -4 -26 0
2 -4 -22 0
4 -4 9 0
3 -4 15 0
9 -4 22 0
6 -4 23 0
4 -4 24 0
9 -4 51 0
9 -4 75 0
2 -3 -120 0
6 -3 -111 0
8 -3 -24 0
9 -3 -18 0
2 -3 33 0
4 -3 57 0
9 -3 88 0
9 -3 126 0
9 -2 -35 0
9 -2 -33 0
7 -2 7 0
8 -2 38 0
4 -2 45 0
9 -2 91 0
6 -2 103 0
9 -1 -98 0
2 -1 -83 0
8 -1 -80 0
7 -1 -65 0
5 -1 -8 0
7 -1 12 0
6 -1 66 0
2 -1 90 0
9 -1 116 0
9 -1 138 0
4 1 -119 0
8 1 -117 0
5 1 -26 0
7 1 -5 0
7 1 60 0
4 1 73 0
7 1 105 0
3 1 112 0
2 1 136 0
6 2 -121 0
4 2 -12 0
5 2 3 0
5 2 70 0
3 2 120 0
4 3 -47 0
4 3 -7 0
9 3 25 0
3 3 62 0
7 3 83 0
8 3 115 0
7 4 -99 0
6 4 -87 0
9 4 -78 0
5 4 -65 0
2 4 -37 0
4 4 108 0
3 4 115 0
7 4 116 0
4 5 -116 0
1 5 -103 0
7 5 -79 0
7 5 -59 0
8 5 -45 0
2 5 -43 0
4 5 9 0
6 5 15 0
5 5 38 0
1 5 82 0
8 5 83 0
6 6 -106 0
7 6 -62 0
2 6 -16 0
1 6 58 0
2 6 66 0
4 6 102 0
5 6 120 0
5 6 133 0
3 6 138 0
6 7 -111 0
2 7 -77 0
1 7 -63 0
4 7 -28 0
6 7 26 0
9 7 56 0
8 7 84 0
7 7 127 0
3 8 -139 0
10 8 -111 0
5 8 -67 0
6 8 -36 0
1 8 14 0
2 8 28 0
3 8 96 0
9 9 -129 0
2 9 -40 0
7 9 -33 0
4 9 36 0
7 9 54 0
7 9 56 0
2 9 97 0
3 9 117 0
4 10 -103 0
3 10 -90 0
3 10 27 0
5 10 40 0
6 10 74 0
7 10 97 0
8 11 -132 0
8 11 -79 0
3 11 -76 0
9 11 -56 0
9 11 41 0
6 11 43 0
5 11 47 0
8 12 -133 0
4 12 -127 0
2 12 -30 0
10 12 45 0
4 12 69 0
6 12 84 0
6 12 86 0
4 12 108 0
7 13 -131 0
9 13 -98 0
2 13 -83 0
8 13 -68 0
5 13 -58 0
6 13 -52 0
5 13 -43 0
2 13 63 0
7 13 93 0
7 13 133 0
5 13 136 0
9 14 -82 0
9 14 -21 0
8 14 24 0
6 14 44 0
5 14 116 0
7 15 -116 0
4 15 -112 0
7 15 17 0
6 15 54 0
2 15 60 0
3 15 117 0
10 15 128 0
9 16 -136 0
6 16 -50 0
2 16 71 0
9 17 38 0
8 17 45 0
8 17 93 0
5 17 119 0
2 18 -136 0
5 18 -135 0
4 18 -110 0
3 18 -98 0
3 18 -83 0
8 18 -44 0
8 18 -37 0
7 18 25 0
9 18 26 0
5 18 32 0
3 18 89 0
4 18 129 0
4 19 -123 0
2 19 -120 0
2 19 -113 0
9 19 -109 0
6 19 -87 0
8 19 -83 0
3 19 -61 0
3 19 -25 0
4 19 55 0
4 19 110 0
5 19 116 0
4 19 125 0
3 20 -137 0
10 20 -130 0
5 20 -126 0
3 20 -80 0
8 20 -23 0
3 20 25 0
7 20 45 0
9 20 73 0
6 20 81 0
10 20 82 0
2 20 96 0
8 20 130 0
8 20 138 0
9 21 -62 0
5 21 32 0
7 21 44 0
4 21 68 0
7 21 80 0
9 21 98 0
7 22 -133 0
8 22 -119 0
2 22 -44 0
6 22 73 0
4 22 107 0
9 23 -125 0
8 23 -110 0
6 23 -97 0
3 23 -74 0
2 23 46 0
1 24 -84 0
5 24 -36 0
4 24 -27 0
10 24 103 0
9 24 119 0
6 25 -135 0
8 25 -81 0
2 25 -66 0
2 25 -57 0
7 25 -54 0
7 25 91 0
2 26 -119 0
8 26 -83 0
5 26 -68 0
9 26 35 0
7 26 54 0
9 26 58 0
5 26 127 0
1 27 -91 0
7 27 -85 0
5 27 -73 0
8 27 -57 0
5 27 48 0
5 28 -137 0
4 28 -120 0
8 28 -103 0
4 28 -80 0
2 28 32 0
5 28 82 0
6 28 98 0
3 28 132 0
5 29 -128 0
10 29 -115 0
6 29 -91 0
5 29 45 0
9 29 69 0
2 29 93 0
3 29 107 0
9 29 140 0
3 30 -77 0
8 30 72 0
6 30 103 0
4 31 -64 0
6 31 -60 0
1 31 -49 0
3 31 130 0
3 32 -113 0
9 32 -90 0
7 32 -86 0
4 32 -82 0
6 32 -57 0
2 32 51 0
2 32 55 0
10 32 68 0
6 32 80 0
5 32 87 0
8 32 88 0
10 32 109 0
6 32 126 0
3 33 -98 0
5 33 -92 0
8 33 -64 0
7 33 -63 0
5 33 36 0
4 33 70 0
2 33 94 0
4 33 99 0
5 33 109 0
4 34 -134 0
3 34 -124 0
7 34 -94 0
2 34 -54 0
9 34 -42 0
1 34 82 0
8 34 139 0
9 35 -104 0
3 35 -83 0
1 35 -69 0
8 35 -54 0
9 35 -45 0
4 35 42 0
4 35 51 0
1 35 80 0
5 35 87 0
4 35 93 0
7 35 103 0
9 35 137 0
2 36 -101 0
6 36 -79 0
5 36 -37 0
5 36 38 0
2 36 53 0
3 36 68 0
2 36 73 0
6 36 128 0
6 37 -140 0
3 37 -128 0
9 37 -101 0
9 37 -64 0
7 37 72 0
2 37 78 0
6 37 82 0
8 37 101 0
9 37 137 0
6 38 -68 0
6 38 -46 0
8 38 127 0
8 39 -127 0
6 39 -89 0
6 39 -75 0
7 39 41 0
9 39 60 0
10 39 79 0
8 39 92 0
3 39 133 0
4 39 139 0
5 40 -66 0
2 40 -53 0
5 40 48 0
10 40 49 0
6 40 107 0
9 41 -129 0
2 41 -125 0
8 41 42 0
10 41 107 0
6 42 -140 0
3 42 44 0
3 42 49 0
5 42 61 0
3 42 75 0
9 42 88 0
6 42 120 0
8 42 122 0
6 43 -136 0
5 43 -115 0
4 43 -86 0
2 43 -61 0
4 43 76 0
2 43 97 0
7 44 -111 0
9 44 -75 0
8 44 64 0
5 44 77 0
9 44 132 0
6 44 140 0
8 45 -92 0
2 45 -61 0
9 45 -53 0
9 45 107 0
6 46 -137 0
9 46 -85 0
5 46 -79 0
5 46 -76 0
10 46 -56 0
3 46 -55 0
4 46 110 0
6 47 -138 0
5 47 -97 0
6 47 -67 0
1 47 81 0
7 47 90 0
5 47 105 0
6 47 138 0
5 48 -140 0
1 48 -138 0
2 48 -54 0
7 48 54 0
2 48 79 0
5 48 103 0
8 48 118 0
8 49 -126 0
4 49 -117 0
6 49 68 0
4 49 93 0
3 50 -119 0
1 50 -72 0
1 50 85 0
4 50 123 0
10 51 -127 0
10 51 -64 0
9 51 82 0
9 51 85 0
5 51 103 0
4 51 105 0
9 51 122 0
7 52 -131 0
7 52 -117 0
5 52 -114 0
2 52 -102 0
4 52 -86 0
6 52 -76 0
8 52 54 0
8 52 100 0
2 52 134 0
2 53 -117 0
8 53 -68 0
3 54 59 0
8 54 61 0
9 54 72 0
7 54 92 0
6 54 125 0
7 55 -140 0
10 55 -107 0
2 55 -90 0
10 55 82 0
2 55 130 0
2 56 -123 0
1 56 -77 0
5 56 64 0
2 56 73 0
10 56 99 0
4 56 121 0
10 57 -101 0
4 57 -90 0
7 57 -83 0
9 58 -132 0
1 58 -104 0
5 58 -66 0
4 58 133 0
2 59 -91 0
7 59 -84 0
9 59 125 0
9 59 128 0
5 60 -137 0
1 60 -126 0
1 60 -101 0
3 60 -98 0
3 60 -72 0
9 61 -103 0
2 61 -101 0
9 61 -98 0
5 61 -69 0
8 61 87 0
8 61 91 0
6 61 100 0
8 61 110 0
10 61 137 0
7 62 -126 0
8 62 -110 0
5 62 -105 0
8 62 -102 0
8 62 81 0
8 62 95 0
8 62 130 0
3 63 -136 0
5 63 -129 0
6 63 -116 0
3 63 67 0
9 63 76 0
10 63 91 0
4 63 98 0
6 63 100 0
9 63 114 0
3 63 125 0
10 64 -138 0
9 64 -122 0
3 64 -92 0
3 64 75 0
2 65 -77 0
1 65 85 0
3 66 -135 0
10 66 105 0
5 67 -132 0
1 67 -121 0
8 67 -120 0
10 67 -109 0
8 67 -91 0
8 67 -78 0
6 67 -71 0
7 67 86 0
3 68 -135 0
4 68 -134 0
5 68 -131 0
10 68 137 0
2 69 -119 0
7 69 -99 0
5 69 -96 0
7 69 -81 0
8 69 105 0
4 70 -85 0
7 70 124 0
2 70 131 0
9 71 -130 0
5 71 101 0
4 72 -135 0
9 72 -104 0
4 72 137 0
5 73 -134 0
2 73 -120 0
5 73 -107 0
6 73 90 0
4 73 126 0
5 74 -137 0
10 74 -132 0
4 74 78 0
3 74 79 0
10 75 -125 0
3 75 -107 0
10 75 -104 0
6 75 -95 0
9 75 131 0
2 76 -128 0
9 76 -92 0
3 76 87 0
2 76 124 0
10 76 128 0
9 77 -120 0
6 77 -104 0
7 77 78 0
7 77 94 0
9 78 -132 0
3 78 112 0
8 78 138 0
8 79 -122 0
7 79 -111 0
2 79 -103 0
7 79 -87 0
1 81 104 0
6 81 136 0
8 82 -85 0
5 83 -139 0
2 83 -137 0
2 83 -90 0
9 83 93 0
2 83 135 0
5 84 -120 0
2 84 131 0
1 85 -137 0
7 85 -123 0
2 85 -87 0
6 87 -120 0
6 87 -112 0
3 87 -98 0
5 87 -94 0
8 87 91 0
4 87 101 0
5 87 104 0
7 87 111 0
9 87 127 0
2 87 136 0
4 88 -100 0
8 88 -90 0
4 88 114 0
2 88 120 0
6 89 -109 0
2 89 99 0
3 90 97 0
4 90 101 0
2 90 131 0
8 91 -125 0
2 91 129 0
7 92 -114 0
8 92 94 0
3 92 133 0
6 93 -140 0
9 93 134 0
7 94 -134 0
7 94 -110 0
9 94 -105 0
5 94 122 0
8 95 -120 0
5 95 -107 0
9 95 97 0
2 96 -97 0
10 96 130 0
7 97 -131 0
5 98 -120 0
5 98 101 0
4 98 124 0
4 98 128 0
6 99 -125 0
7 99 130 0
2 99 138 0
9 100 -108 0
9 100 124 0
8 100 132 0
1 101 -125 0
1 101 -123 0
2 101 125 0
2 101 129 0
8 101 132 0
2 101 136 0
8 102 -127 0
6 102 -119 0
4 103 -111 0
4 103 110 0
5 103 131 0
2 103 138 0
10 104 -123 0
4 104 -116 0
5 104 137 0
8 105 -109 0
9 105 119 0
5 105 138 0
9 106 -109 0
8 107 109 0
2 107 123 0
4 108 122 0
4 110 -135 0
5 110 -134 0
7 111 117 0
9 112 -126 0
3 112 -121 0
8 112 126 0
8 113 -134 0
1 113 -132 0
6 114 -120 0
8 114 -118 0
2 115 -138 0
6 116 128 0
9 116 133 0
8 117 -133 0
8 117 131 0
7 118 -137 0
4 118 126 0
2 119 -134 0
1 119 130 0
8 120 -128 0
3 120 140 0
10 121 -128 0
3 121 -127 0
7 121 135 0
8 123 -131 0
1 125 -126 0
2 127 -139 0
7 127 -138 0
9 129 135 0
3 132 -137 0
9 132 134 0
2 133 -137 0
7 136 -140 0
6 137 -139 0
